c b=4,c=95
p cnf 15 67
1 2 3 4 -8 0
1 2 3 4 -9 0
2 3 4 -10 0
1 3 4 -11 0
1 2 4 -12 0
2 4 -14 0
1 2 3 -4 8 0
-4 9 0
1 -4 10 0
2 -4 11 0
1 3 -4 12 0
1 3 -4 14 0
1 2 3 -7 0
1 2 3 -13 0
1 3 -15 0
-3 4 8 0
2 -3 4 13 0
4 -15 0
-3 -4 -8 0
1 2 -4 -13 0
-3 -4 15 0
1 2 -3 7 0
-3 9 0
1 -3 10 0
2 -3 11 0
1 -3 -12 0
2 -3 -14 0
1 2 -6 0
-2 4 8 0
1 -2 4 -13 0
3 4 -14 0
-2 -4 -8 0
1 -2 -4 13 0
-2 3 7 0
1 -2 3 12 0
-2 -3 4 14 0
-3 -4 -14 0
-2 -3 -7 0
1 -2 6 0
-2 9 0
1 -2 10 0
-2 -11 0
1 -5 0
-1 4 8 0
2 3 4 -13 0
-1 -4 -8 0
-1 2 3 -4 13 0
2 3 -4 14 0
-1 3 7 0
-1 3 -12 0
2 3 -15 0
2 -3 -4 -13 0
-1 -3 -7 0
-1 -3 12 0
-1 2 6 0
-1 2 11 0
-1 -2 3 4 13 0
-1 -2 3 -4 -13 0
-1 -2 -4 15 0
-1 -2 3 -14 0
-2 -3 4 -13 0
-2 -3 -4 13 0
-1 -2 -4 -14 0
-1 -2 -6 0
-1 5 0
-1 9 0
-1 -10 0
